49 41
65 10
154 23
218 12
269 27
322 32
379 46
17 107
95 105
147 60
183 64
285 78
303 93
348 113
45 115
88 167
131 160
196 129
246 134
341 127
346 169
22 183
70 213
167 195
212 176
240 225
319 185
371 201
11 255
61 258
120 270
211 273
229 273
314 277
367 249
30 340
62 309
117 321
228 343
251 300
287 337
360 286
40 392
69 360
158 387
179 398
237 388
334 356
372 359
157 118
